
  17    4
  10   10   10   10

   0   0   0   0   0   6 2 3 5 6 7 11 
   1  10  10  10  10   2 8 4 
   5  10  10  10  10   3 16 9 8 
   3  10  10  10  10   3 16 14 9 
   6  10  10  10  10   3 16 14 9 
   2  10  10  10  10   3 16 14 9 
   1  10  10  10  10   3 16 14 9 
   4  10  10  10  10   1 10 
   6  10  10  10  10   3 15 13 12 
  10  10  10  10  10   3 14 13 12 
   3  10  10  10  10   1 15 
   8  10  10  10  10   1 17
   7  10  10  10  10   1 17
   1  10  10  10  10   1 17
   1  10  10  10  10   1 17
   1  10  10  10  10   1 17
   0   0   0   0   0   0 
